69 47 83 56 5 4 97 24 6 76 36 63 75 88 66 29 30 2 73 13 32 41 40 90 21 93 19 87 61 95 22 98 70 1 80 45 53 25 12 85 86 26 33 37 52 58 49 11 34 79 14 44 64 50 74 81 38 65 82 72 78 54 91 84 28 67 60 31 15 0 18 92 35 51 94 27 8 77 42 99 57 10 89 55 68 43 62 39 20 3 48 17 9 16 46 71 23 59 7 96 

